c SAT Generator for power-law distributed variable frequencies
c -g u -v 20 -c 91 -k 3 -p 2.750000 -b 3.200000 -f /home/schmidt/Devel/ni-kop-sat/data/ensemble/ruf20-91/ruf20-91-184 -u 1 -U 1 -s 3143217211
p cnf 20 91
-2 15 18 0
-3 -7 -19 0
10 12 -18 0
-3 10 19 0
3 6 7 0
-1 -10 19 0
-6 -17 20 0
7 -8 -11 0
-1 8 -12 0
1 10 -12 0
-1 2 -7 0
10 -11 20 0
-3 14 -17 0
-10 -11 19 0
1 -2 7 0
-1 -9 -14 0
-1 6 -14 0
2 15 -19 0
-2 -3 -8 0
8 -11 17 0
-6 8 20 0
-1 -2 4 0
-2 5 12 0
2 -5 -6 0
7 11 15 0
1 -19 -20 0
-7 13 -20 0
-12 -14 -17 0
9 -12 -20 0
9 -17 18 0
10 -11 -16 0
-1 -2 -5 0
-8 -10 -19 0
1 3 18 0
-10 -11 18 0
7 -13 -18 0
2 -4 17 0
-6 8 11 0
1 4 19 0
-3 -12 -19 0
-10 11 17 0
7 14 -15 0
-2 -5 -8 0
-4 19 20 0
8 -15 18 0
5 -6 -16 0
3 -4 -12 0
-5 7 -19 0
4 -7 -15 0
1 -4 10 0
11 -18 -19 0
-2 11 -15 0
4 -12 -20 0
13 -16 17 0
3 6 15 0
-3 -8 17 0
-7 12 15 0
7 11 20 0
9 -10 -16 0
-11 -14 -18 0
7 -12 -14 0
-4 -11 -19 0
3 -9 -13 0
2 -12 16 0
-8 11 12 0
-3 -14 -15 0
-4 -6 9 0
-2 -13 15 0
-6 11 19 0
-3 16 17 0
1 15 19 0
9 -13 18 0
3 4 -5 0
8 11 20 0
-5 -7 9 0
2 -7 14 0
-7 -8 -14 0
-9 -10 -14 0
3 9 17 0
-1 -13 17 0
-4 12 18 0
-8 15 16 0
-2 -12 17 0
3 10 12 0
-3 -7 9 0
-5 -6 -9 0
1 -4 -6 0
2 -3 6 0
-1 16 19 0
-8 -15 18 0
3 4 9 0
